1632872
0,23,60,2,20,62,15,58,35,7,14,57,8,16,26,1,47,3,19,46,53,12,64,44,67,34,50,38,61,36,52,49,27,30,43,13,9,17,56,32,51,21,42,6,33,45,54,25,65,10,63,66,37,40,29,24,5,22,48,18,59,28,4,39,55,31,41,11,0